K = 2;
capacity =
  [60, 40, 45, 34, 60, 33, 34, 60];
  
N = 7;
nStudents = [1000, 1500, 750, 1000, 1200, 1500, 1500];
year = [1,1,1,2,2,2,3];

D = 3;
department = [1, 2, 1, 3,3,2,1];

requiredTime = [40, 55, 50, 45, 45, 55, 55];